\ This file was automatically generated by Zimpl
\ var x1 >= 0;
\ var x2 >= 0;
\ maximize Z:     1*x1 + 1*x2;
\ subto c1:     -1*x1 + 1*x2 >= 3;
\ subto c2:     1*x1 + 1*x2 <= 27;
\ subto c3:     2*x1 - 1*x2 <= -3;
\Problem name: pp
Maximize
 Z:  + x1 + x2
Subject to
 c1_1:
  + x2 - x1 >= 3
 c2_1:
  + x2 + x1 <= 27
 c3_1:
  - x2 +2 x1 <= -3
Bounds
 0 <= x1 <= +inf
 0 <= x2 <= +inf
End
